# Solution for model r3_t9_m5_4
# Finished Task: 8 / 9
# Makespan: 687.0, Total Distance: 556.0, Total Time: 0.0854
# R O S F
0 0 4 0.0 0.0
1 1 6 0.0 0.0
2 2 11 0.0 0.0
3 1 10 497.0 529.0
4 0 9 137.0 168.0
5 0 -1 547.0 583.0
6 1 3 381.0 403.0
7 1 -1 662.0 687.0
8 -1 -1 -1.0 -1.0
9 0 5 458.0 497.0
10 1 7 604.0 629.0
11 2 -1 529.0 560.0
